p cnf 26 65
a 15 23 0
e 1 2 3 4 5 6 7 8 9 10 11 12 13 14 16 17 18 19 20 21 22 24 25 26 0
-2 1 0
-2 -1 0
-1 -2 -3 0
1 2 -3 0
-1 2 3 0
1 -2 3 0
-3 4 -5 0
3 -4 -5 0
-3 -4 5 0
3 4 5 0
-7 4 0
-7 -6 0
-4 6 7 0
8 -5 0
8 7 0
5 -7 -8 0
-10 -9 0
-10 -6 0
9 6 10 0
11 8 0
11 10 0
-8 -10 -11 0
12 13 -14 0
-12 -13 -14 0
12 -13 14 0
-12 13 14 0
16 2 0
16 -15 0
-2 15 -16 0
-17 2 0
-17 16 0
-2 -16 17 0
18 17 0
18 -12 0
-17 12 -18 0
-14 -18 -19 0
14 18 -19 0
-14 18 19 0
14 -18 19 0
20 -11 0
20 19 0
11 -19 -20 0
-22 21 0
-22 16 0
-21 -16 22 0
23 -1 0
23 -13 0
1 13 -23 0
24 23 0
24 -21 0
-23 21 -24 0
22 24 -25 0
-22 -24 -25 0
22 -24 25 0
-22 24 25 0
26 -20 0
26 -25 0
20 25 -26 0
1 -5 -25 17 0
6 22 20 -3 0
-16 20 10 21 18 11 19 0
-10 15 11 0
9 1 24 -21 -17 15 0
15 -12 -14 24 -9 -1 0
26 0
